CMPL model generation - running

CMPL version: 1.11.0
Authors: Thomas Schleiff, Mike Steglich
Distributed under the GPLv3 

create model instance ...
write model instance ...
CMPL model generation - finished

Solver - running


Welcome to IBM(R) ILOG(R) CPLEX(R) Interactive Optimizer 12.7.1.0
  with Simplex, Mixed Integer & Barrier Optimizers
5725-A06 5725-A29 5724-Y48 5724-Y49 5724-Y54 5724-Y55 5655-Y21
Copyright IBM Corp. 1988, 2017.  All Rights Reserved.

Type 'help' for a list of available commands.
Type 'help' followed by a command name for more
information on commands.

CPLEX> Specified objective sense: MINIMIZE
Selected objective  name:  line[1]
Selected RHS        name:  RHS
Selected bound      name:  BOUND
Problem '/tmp/cmpl.T24189.mps' read.
Read time = 0.06 sec. (10.12 ticks)
CPLEX> CPXPARAM_Read_APIEncoding                        "UTF-8"
Tried aggregator 3 times.
MIP Presolve eliminated 23984 rows and 37541 columns.
MIP Presolve modified 425 coefficients.
Aggregator did 777 substitutions.
Reduced MIP has 3161 rows, 4137 columns, and 12237 nonzeros.
Reduced MIP has 3927 binaries, 0 generals, 0 SOSs, and 0 indicators.
Presolve time = 0.07 sec. (50.28 ticks)
Found incumbent of value 1059.858702 after 0.13 sec. (86.20 ticks)
Probing fixed 17 vars, tightened 0 bounds.
Probing time = 0.02 sec. (5.36 ticks)
Tried aggregator 1 time.
MIP Presolve eliminated 0 rows and 17 columns.
MIP Presolve modified 99 coefficients.
Reduced MIP has 3161 rows, 4120 columns, and 12203 nonzeros.
Reduced MIP has 4120 binaries, 0 generals, 0 SOSs, and 0 indicators.
Presolve time = 0.02 sec. (10.38 ticks)
Probing time = 0.01 sec. (2.85 ticks)
Clique table members: 7401.
MIP emphasis: balance optimality and feasibility.
MIP search method: dynamic search.
Parallel mode: none, using 1 thread.
Root relaxation solution time = 0.01 sec. (6.60 ticks)

        Nodes                                         Cuts/
   Node  Left     Objective  IInf  Best Integer    Best Bound    ItCnt     Gap

*     0+    0                         1059.8587      -24.1352           102.28%
      0     0      238.6585     6     1059.8587      238.6585      211   77.48%
*     0+    0                          246.6975      238.6585             3.26%
*     0+    0                          238.7956      238.6585             0.06%
*     0     0      integral     0      238.7933       Cuts: 6      217    0.00%
      0     0        cutoff            238.7933      238.7933      217    0.00%
Elapsed time = 0.22 sec. (138.55 ticks, tree = 0.01 MB, solutions = 4)

Cover cuts applied:  4
Gomory fractional cuts applied:  2

Root node processing (before b&c):
  Real time             =    0.22 sec. (140.66 ticks)
Sequential b&c:
  Real time             =    0.00 sec. (0.00 ticks)
                          ------------
Total (root+branch&cut) =    0.22 sec. (140.66 ticks)

Solution pool: 4 solutions saved.

MIP - Integer optimal solution:  Objective =  2.3879330800e+02
Solution time =    0.22 sec.  Iterations = 217  Nodes = 0
Deterministic time = 140.78 ticks  (627.36 ticks/sec)

CPLEX> Incumbent solution written to file '/tmp/cmpl.T24189.gsol'.
CPLEX> 
CMPL: Time used for model generation: 0 seconds
CMPL: Time used for solving the model: 1 seconds


Solution written to ASCII file: results/output_generated_conf_0.5/2017-10-02-5/fair-nonlinear.sol

Solver - finished
